PROBLEM NAME: circle20_n19_bounded-strongly-corr
KNAPSACK DATA TYPE: bounded strongly corr
DIMENSION: 20
NUMBER OF ITEMS: 19
CAPACITY OF KNAPSACK: 165
MIN SPEED: 0.1
MAX SPEED: 1.0
RENTING RATIO: 1.1
EDGE_WEIGHT_TYPE: EUC_2D
NODE_COORD_SECTION
1 100 50
2 98 65
3 90 79
4 79 90
5 65 98
6 50 100
7 35 98
8 21 90
9 10 79
10 2 65
11 0 50
12 2 35
13 10 21
14 21 10
15 35 2
16 50 0
17 65 2
18 79 10
19 90 21
20 98 35
ITEMS SECTION
1 120 20 2
2 125 25 3
3 130 30 4
4 135 35 5
5 140 40 6
6 138 38 7
7 132 32 8
8 128 28 9
9 122 22 10
10 118 18 11
11 105 5 12
12 104 4 13
13 106 6 14
14 103 3 15
15 107 7 16
16 105 5 17
17 104 4 18
18 106 6 19
19 103 3 20
